c turning on binary mode checking
c parsing input formula with 202048 variables and 780985 clauses
c finished parsing, read 16675400 bytes from proof file
c detected empty clause; start verification via backward checking
c 8893 of 780985 clauses in core                            
c 10380 of 452059 lemmas in core using 91395 resolution steps
c 0 RAT lemmas in core; 655 redundant literals in core lemmas
s VERIFIED
c verification time: 2.101 seconds
